
Gurobi 13.0.2 (win64) logging started Fri Jul 24 06:27:02 2026

Set parameter LogFile to value "E:\codes\ExactEBRP\results\gf_c0_mechanism_transfer_c5_round30\runs\stage1__moderate_seed3302__c5_candidate__300s\external\native_logs\L0.1.0.1.0.0_partial_target_mip.gurobi.log"
Gurobi Optimizer version 13.0.2 build v13.0.2rc1 (win64 - Windows 10.0 (19045.2))

CPU model: 12th Gen Intel(R) Core(TM) i7-12700KF, instruction set [SSE2|AVX|AVX2]
Thread count: 12 physical cores, 20 logical processors, using up to 1 threads

Non-default parameters:
TimeLimit  2.5166877979999998e+02
MIPGap  0
MIPGapAbs  0
LogToConsole  0
Threads  1

Optimize a model with 11903 rows, 3374 columns and 67328 nonzeros (Min)
Model fingerprint: 0xc41088d0
Model has 21 linear objective coefficients
Variable types: 1684 continuous, 1690 integer (1490 binary)
Coefficient statistics:
  Matrix range     [7e-03, 1e+04]
  Objective range  [7e-03, 1e+00]
  Bounds range     [3e-02, 3e+02]
  RHS range        [3e-02, 5e+04]

Presolve removed 888 rows and 77 columns
Presolve time: 0.21s
Presolved: 11015 rows, 3297 columns, 73299 nonzeros
Variable types: 1633 continuous, 1664 integer (1473 binary)

Root relaxation: objective 1.391072e-01, 3625 iterations, 0.24 seconds (0.62 work units)

    Nodes    |    Current Node    |     Objective Bounds      |     Work
 Expl Unexpl |  Obj  Depth IntInf | Incumbent    BestBd   Gap | It/Node Time

     0     0    0.13911    0  210          -    0.13911      -     -    0s
     0     0    0.13911    0  315          -    0.13911      -     -    1s
     0     0    0.14892    0  356          -    0.14892      -     -    2s
     0     0    0.14896    0  356          -    0.14896      -     -    2s

Cutting planes:
  Learned: 9
  Gomory: 5
  Cover: 22
  Implied bound: 126
  Clique: 11
  MIR: 319
  StrongCG: 9
  Flow cover: 84
  GUB cover: 2
  Zero half: 3
  Network: 28
  RLT: 4
  Relax-and-lift: 15
  BQP: 17

Explored 1 nodes (12513 simplex iterations) in 2.23 seconds (4.60 work units)
Thread count was 1 (of 20 available processors)

Solution count 0

Solve interrupted
Best objective -, best bound 1.489621340923e-01, gap -

User-callback calls 1074, time in user-callback 0.00 sec
